1 1 0 1 1 1 0 1 0 1 1 
0 77 80 77 55 76 24 73 31 73 33 
77 0 16 44 71 36 70 27 16 33 66 
80 16 0 58 39 50 56 78 60 51 32 
77 44 58 0 31 66 39 22 33 33 71 
55 71 39 31 0 52 15 68 21 61 48 
76 36 50 66 52 0 66 66 49 53 75 
24 70 56 39 15 66 0 22 46 56 73 
73 27 78 22 68 66 22 0 62 67 78 
31 16 60 33 21 49 46 62 0 48 38 
73 33 51 33 61 53 56 67 48 0 18 
33 66 32 71 48 75 73 78 38 18 0 
2 50
1P 7B 5P 9B 6P 3B 2P 8P 4P 10P 11P = 308